output.txt
Running VeriPB version 2.2.2.post63+git.e70eaf1b.dirty

=== begin trace ===
  Objective: min 1 ~_b2 1 ~_b1 0 
  ConstraintId 001: 1 ~_b1 1 x1 1 x2 1 x3 >= 1
  ConstraintId 002: 1 ~_b2 1 ~x1 1 x4 1 x5 >= 1
line 002: f
line 003: * _b1 <- 1 x3 1 x2 1 x1 >= 1
line 004: red 3 _b1 1 ~x3 1 ~x2 1 ~x1 >=  3; _b1 1
  ** proofgoals from formula **
  proofgoal 001: 1 x1 1 x2 1 x3 >= 1
  ** proofgoal from satisfying added constraint **
  proofgoal #1: 1 ~x1 1 ~x2 1 ~x3 >= 0
  ** proofgoals from order **
  ** proofgoals from objective **
  proofgoal #2: 1 ~_b1 >= 0
    automatically proved #1, constraint is trivial.
    automatically proved #2, constraint is trivial.
  ConstraintId 003: 3 _b1 1 ~x1 1 ~x2 1 ~x3 >= 3
line 005: * _b2 <- 1 x5 1 x4 1 ~x1 >= 1
line 006: red 3 _b2 1 ~x5 1 ~x4 1 x1 >=  3; _b2 1
  ** proofgoals from formula **
  proofgoal 002: 1 ~x1 1 x4 1 x5 >= 1
  ** proofgoal from satisfying added constraint **
  proofgoal #1: 1 x1 1 ~x4 1 ~x5 >= 0
  ** proofgoals from order **
  ** proofgoals from objective **
  proofgoal #2: 1 ~_b2 >= 0
    automatically proved #1, constraint is trivial.
    automatically proved #2, constraint is trivial.
  ConstraintId 004: 3 _b2 1 x1 1 ~x4 1 ~x5 >= 3
line 007: * ~_p3 -> 1 x4 1 x5 1 x3 1 x2 >= 1
line 008: red 1 _p3 1 x4 1 x5 1 x3 1 x2 >= 1; _p3 1
  ** proofgoals from formula **
  ** proofgoal from satisfying added constraint **
  proofgoal #1: 1 x2 1 x3 1 x4 1 x5 >= 0
  ** proofgoals from order **
  ** proofgoals from objective **
  proofgoal #2: >= 0
  ConstraintId 005: 1 _p3 1 x2 1 x3 1 x4 1 x5 >= 1
line 009: * ~_p3 <- 1 x4 1 x5 1 x3 1 x2 >= 1
line 010: red 4 ~_p3 1 ~x4 1 ~x5 1 ~x3 1 ~x2 >=  4; _p3 0
  ** proofgoals from formula **
  proofgoal 005: 1 x2 1 x3 1 x4 1 x5 >= 1
  ** proofgoal from satisfying added constraint **
  proofgoal #1: 1 ~x2 1 ~x3 1 ~x4 1 ~x5 >= 0
  ** proofgoals from order **
  ** proofgoals from objective **
  proofgoal #2: >= 0
    automatically proved #1, constraint is trivial.
    automatically proved #2, constraint is trivial.
  ConstraintId 006: 4 ~_p3 1 ~x2 1 ~x3 1 ~x4 1 ~x5 >= 4
line 011: * ~_p4 -> 1 ~x5 1 x3 1 x2 1 x1 >= 1
line 012: red 1 _p4 1 ~x5 1 x3 1 x2 1 x1 >= 1; _p4 1
  ** proofgoals from formula **
  ** proofgoal from satisfying added constraint **
  proofgoal #1: 1 x1 1 x2 1 x3 1 ~x5 >= 0
  ** proofgoals from order **
  ** proofgoals from objective **
  proofgoal #2: >= 0
  ConstraintId 007: 1 _p4 1 x1 1 x2 1 x3 1 ~x5 >= 1
line 013: * ~_p4 <- 1 ~x5 1 x3 1 x2 1 x1 >= 1
line 014: red 4 ~_p4 1 x5 1 ~x3 1 ~x2 1 ~x1 >=  4; _p4 0
  ** proofgoals from formula **
  proofgoal 007: 1 x1 1 x2 1 x3 1 ~x5 >= 1
  ** proofgoal from satisfying added constraint **
  proofgoal #1: 1 ~x1 1 ~x2 1 ~x3 1 x5 >= 0
  ** proofgoals from order **
  ** proofgoals from objective **
  proofgoal #2: >= 0
    automatically proved #1, constraint is trivial.
    automatically proved #2, constraint is trivial.
  ConstraintId 008: 4 ~_p4 1 ~x1 1 ~x2 1 ~x3 1 x5 >= 4
line 015: * ~_p5 -> 1 ~x4 1 x5 1 x3 1 x2 1 x1 >= 1
line 016: red 1 _p5 1 ~x4 1 x5 1 x3 1 x2 1 x1 >= 1; _p5 1
  ** proofgoals from formula **
  ** proofgoal from satisfying added constraint **
  proofgoal #1: 1 x1 1 x2 1 x3 1 ~x4 1 x5 >= 0
  ** proofgoals from order **
  ** proofgoals from objective **
  proofgoal #2: >= 0
  ConstraintId 009: 1 _p5 1 x1 1 x2 1 x3 1 ~x4 1 x5 >= 1
line 017: * ~_p5 <- 1 ~x4 1 x5 1 x3 1 x2 1 x1 >= 1
line 018: red 5 ~_p5 1 x4 1 ~x5 1 ~x3 1 ~x2 1 ~x1 >=  5; _p5 0
  ** proofgoals from formula **
  proofgoal 009: 1 x1 1 x2 1 x3 1 ~x4 1 x5 >= 1
  ** proofgoal from satisfying added constraint **
  proofgoal #1: 1 ~x1 1 ~x2 1 ~x3 1 x4 1 ~x5 >= 0
  ** proofgoals from order **
  ** proofgoals from objective **
  proofgoal #2: >= 0
    automatically proved #1, constraint is trivial.
    automatically proved #2, constraint is trivial.
  ConstraintId 010: 5 ~_p5 1 ~x1 1 ~x2 1 ~x3 1 x4 1 ~x5 >= 5
line 019: * ~_p6 -> 1 ~x3 1 x5 1 x4 1 ~x1 >= 1
line 020: red 1 _p6 1 ~x3 1 x5 1 x4 1 ~x1 >= 1; _p6 1
  ** proofgoals from formula **
  ** proofgoal from satisfying added constraint **
  proofgoal #1: 1 ~x1 1 ~x3 1 x4 1 x5 >= 0
  ** proofgoals from order **
  ** proofgoals from objective **
  proofgoal #2: >= 0
  ConstraintId 011: 1 _p6 1 ~x1 1 ~x3 1 x4 1 x5 >= 1
line 021: * ~_p6 <- 1 ~x3 1 x5 1 x4 1 ~x1 >= 1
line 022: red 4 ~_p6 1 x3 1 ~x5 1 ~x4 1 x1 >=  4; _p6 0
  ** proofgoals from formula **
  proofgoal 011: 1 ~x1 1 ~x3 1 x4 1 x5 >= 1
  ** proofgoal from satisfying added constraint **
  proofgoal #1: 1 x1 1 x3 1 ~x4 1 ~x5 >= 0
  ** proofgoals from order **
  ** proofgoals from objective **
  proofgoal #2: >= 0
    automatically proved #1, constraint is trivial.
    automatically proved #2, constraint is trivial.
  ConstraintId 012: 4 ~_p6 1 x1 1 x3 1 ~x4 1 ~x5 >= 4
line 023: * ~_p7 -> 1 ~x2 1 x3 1 x5 1 x4 1 ~x1 >= 1
line 024: red 1 _p7 1 ~x2 1 x3 1 x5 1 x4 1 ~x1 >= 1; _p7 1
  ** proofgoals from formula **
  ** proofgoal from satisfying added constraint **
  proofgoal #1: 1 ~x1 1 ~x2 1 x3 1 x4 1 x5 >= 0
  ** proofgoals from order **
  ** proofgoals from objective **
  proofgoal #2: >= 0
  ConstraintId 013: 1 _p7 1 ~x1 1 ~x2 1 x3 1 x4 1 x5 >= 1
line 025: * ~_p7 <- 1 ~x2 1 x3 1 x5 1 x4 1 ~x1 >= 1
line 026: red 5 ~_p7 1 x2 1 ~x3 1 ~x5 1 ~x4 1 x1 >=  5; _p7 0
  ** proofgoals from formula **
  proofgoal 013: 1 ~x1 1 ~x2 1 x3 1 x4 1 x5 >= 1
  ** proofgoal from satisfying added constraint **
  proofgoal #1: 1 x1 1 x2 1 ~x3 1 ~x4 1 ~x5 >= 0
  ** proofgoals from order **
  ** proofgoals from objective **
  proofgoal #2: >= 0
    automatically proved #1, constraint is trivial.
    automatically proved #2, constraint is trivial.
  ConstraintId 014: 5 ~_p7 1 x1 1 x2 1 ~x3 1 ~x4 1 ~x5 >= 5
line 027: p 14 x3 w x5 w x4 w x1 w s
  ConstraintId 015: 1 ~_p7 1 x2 >= 1
line 028: p 12 x5 w x4 w x1 w s
  ConstraintId 016: 1 ~_p6 1 x3 >= 1
line 029: p ~_p3 -1 + -2 +
  ConstraintId 017: 1 ~_p3 1 ~_p6 1 ~_p7 1 x2 1 x3 >= 2
line 030: * Initial constraint
line 031: *
line 032: p 6 x2 w x5 w x4 w s
  ConstraintId 018: 1 ~_p3 1 ~x3 >= 1
line 033: p 14 x1 w x2 w x5 w x4 w s
  ConstraintId 019: 1 ~_p7 1 ~x3 >= 1
line 034: p -1 -2 + ~_p6 +
  ConstraintId 020: 1 ~_p3 1 ~_p6 1 ~_p7 2 ~x3 >= 2
line 035: * Subclaim 1
line 036: *
line 037: p 6 x3 w x5 w x4 w s
  ConstraintId 021: 1 ~_p3 1 ~x2 >= 1
line 038: p 12 x1 w x2 w x5 w x4 w s
  ConstraintId 022: 1 ~_p6 1 x3 >= 1
line 039: p -1 -2 + ~_p7 +
  ConstraintId 023: 1 ~_p3 1 ~_p6 1 ~_p7 1 ~x2 1 x3 >= 2
line 040: * Subclaim 2
line 041: *
line 042: * Proof by contradiction1
line 043: *
line 044: red 1 ~_p3 1 ~_p7 1 ~_p6 1 x3 >= 2; ; begin
  ** proofgoals from formula **
  ** proofgoal from satisfying added constraint **
  proofgoal #1: 1 ~_p3 1 ~_p6 1 ~_p7 1 x3 >= 2
  ** proofgoals from order **
  ** proofgoals from objective **
  proofgoal #2: >= 0
  ConstraintId 024: 1 _p3 1 _p6 1 _p7 1 ~x3 >= 3
line 045: 	proofgoal #1
  ConstraintId 025: 1 _p3 1 _p6 1 _p7 1 ~x3 >= 3
line 046: p 17 -1 + s
  ConstraintId 026: 1 x2 >= 1
line 047: p 23 -2 + s
  ConstraintId 027: 1 ~x2 >= 1
line 048: p -1 -2 + s
  ConstraintId 028: >= 1
line 049: 	end -1
  ConstraintId  - : deleting 25, 26, 27, 28
line 050: end
    automatically proved #2, constraint is trivial.
  ConstraintId 029: 1 ~_p3 1 ~_p6 1 ~_p7 1 x3 >= 2
  ConstraintId  - : deleting 24
line 051: p -1 x3 +
  ConstraintId 030: 1 ~_p3 1 ~_p6 1 ~_p7 2 x3 >= 2
line 052: * Proof by contradiction0
line 053: *
line 054: red 1 ~_p3 1 ~_p7 1 ~_p6 >= 2; ; begin
  ** proofgoals from formula **
  ** proofgoal from satisfying added constraint **
  proofgoal #1: 1 ~_p3 1 ~_p6 1 ~_p7 >= 2
  ** proofgoals from order **
  ** proofgoals from objective **
  proofgoal #2: >= 0
  ConstraintId 031: 1 _p3 1 _p6 1 _p7 >= 2
line 055: 	proofgoal #1
  ConstraintId 032: 1 _p3 1 _p6 1 _p7 >= 2
line 056: p 30 -1 + s
  ConstraintId 033: 1 x3 >= 1
line 057: p 20 -2 + s
  ConstraintId 034: 1 ~x3 >= 1
line 058: p -1 -2 + s
  ConstraintId 035: >= 1
line 059: 	end -1
  ConstraintId  - : deleting 32, 33, 34, 35
line 060: end
    automatically proved #2, constraint is trivial.
  ConstraintId 036: 1 ~_p3 1 ~_p6 1 ~_p7 >= 2
  ConstraintId  - : deleting 31
line 061: p 2 -1 +
  ConstraintId 037: 1 ~_b2 1 ~_p3 1 ~_p6 1 ~_p7 1 ~x1 1 x4 1 x5 >= 3
line 062: p 6 x3 w x2 w x4 w s
  ConstraintId 038: 1 ~_p3 1 ~x5 >= 1
line 063: p 12 x1 w x3 w x4 w s
  ConstraintId 039: 1 ~_p6 1 ~x5 >= 1
line 064: p 14 x1 w x3 w x2 w x4 w s
  ConstraintId 040: 1 ~_p7 1 ~x5 >= 1
line 065: p -3 -2 + -1 +
  ConstraintId 041: 1 ~_p3 1 ~_p6 1 ~_p7 3 ~x5 >= 3
line 066: p -1 ~_b2 + ~x1 +
  ConstraintId 042: 1 ~_b2 1 ~_p3 1 ~_p6 1 ~_p7 1 ~x1 3 ~x5 >= 3
line 067: p 6 x3 w x2 w x5 w s
  ConstraintId 043: 1 ~_p3 1 ~x4 >= 1
line 068: p 12 x1 w x3 w x5 w s
  ConstraintId 044: 1 ~_p6 1 ~x4 >= 1
line 069: p 14 x1 w x3 w x2 w x5 w s
  ConstraintId 045: 1 ~_p7 1 ~x4 >= 1
line 070: p -3 -2 + -1 +
  ConstraintId 046: 1 ~_p3 1 ~_p6 1 ~_p7 3 ~x4 >= 3
line 071: p -1 ~_b2 + ~x1 +
  ConstraintId 047: 1 ~_b2 1 ~_p3 1 ~_p6 1 ~_p7 1 ~x1 3 ~x4 >= 3
line 072: red 1 ~x1 1 ~_b2 1 ~_p3 1 ~_p6 1 ~_p7 >= 3; ; begin
  ** proofgoals from formula **
  ** proofgoal from satisfying added constraint **
  proofgoal #1: 1 ~_b2 1 ~_p3 1 ~_p6 1 ~_p7 1 ~x1 >= 3
  ** proofgoals from order **
  ** proofgoals from objective **
  proofgoal #2: >= 0
  ConstraintId 048: 1 _b2 1 _p3 1 _p6 1 _p7 1 x1 >= 3
line 073: 	proofgoal #1
  ConstraintId 049: 1 _b2 1 _p3 1 _p6 1 _p7 1 x1 >= 3
line 074: p 49 37 + s
  ConstraintId 050: 1 x4 1 x5 >= 1
line 075: p 49 42 + s
  ConstraintId 051: 1 ~x5 >= 1
line 076: p 49 47 + s
  ConstraintId 052: 1 ~x4 >= 1
line 077: p -3 -2 + -1 + s
  ConstraintId 053: >= 1
line 078: 	end -1
  ConstraintId  - : deleting 49, 50, 51, 52, 53
line 079: end
    automatically proved #2, constraint is trivial.
  ConstraintId 054: 1 ~_b2 1 ~_p3 1 ~_p6 1 ~_p7 1 ~x1 >= 3
  ConstraintId  - : deleting 48
line 080: p ~x1 2 * -1 +
  ConstraintId 055: 1 ~_b2 1 ~_p3 1 ~_p6 1 ~_p7 3 ~x1 >= 3
line 081: p 10 x3 w x2 w x5 w x4 w s
  ConstraintId 056: 1 ~_p5 1 ~x1 >= 1
line 082: p 8 x3 w x2 w x5 w s
  ConstraintId 057: 1 ~_p4 1 ~x1 >= 1
line 083: p -2 -1 + 55 + ~_b1 +
  ConstraintId 058: 1 ~_b1 1 ~_b2 1 ~_p3 1 ~_p4 1 ~_p5 1 ~_p6 1 ~_p7 5 ~x1 >= 5
line 084: * Claim 1
line 085: *
line 086: * __Claim 1__
line 087: p 10 x5 w x3 w x2 w x1 w s
  ConstraintId 059: 1 ~_p5 1 x4 >= 1
line 088: p 8 x3 w x2 w x1 w s
  ConstraintId 060: 1 ~_p4 1 x5 >= 1
line 089: p ~_p3 -1 + -2 +
  ConstraintId 061: 1 ~_p3 1 ~_p4 1 ~_p5 1 x4 1 x5 >= 2
line 090: * Initial constraint
line 091: *
line 092: p 6 x3 w x2 w x4 w s
  ConstraintId 062: 1 ~_p3 1 ~x5 >= 1
line 093: p 10 x1 w x4 w x3 w x2 w s
  ConstraintId 063: 1 ~_p5 1 ~x5 >= 1
line 094: p -1 -2 + ~_p4 +
  ConstraintId 064: 1 ~_p3 1 ~_p4 1 ~_p5 2 ~x5 >= 2
line 095: * Subclaim1
line 096: *
line 097: p 6 x3 w x2 w x5 w s
  ConstraintId 065: 1 ~_p3 1 ~x4 >= 1
line 098: p 8 x1 w x4 w x3 w x2 w s
  ConstraintId 066: 1 ~_p4 1 x5 >= 1
line 099: p -1 -2 + ~_p5 +
  ConstraintId 067: 1 ~_p3 1 ~_p4 1 ~_p5 1 ~x4 1 x5 >= 2
line 100: * Subclaim2
line 101: *
line 102: * Proof by contradiction1
line 103: *
line 104: red 1 ~_p3 1 ~_p5 1 ~_p4 1 x5 >= 2; ; begin
  ** proofgoals from formula **
  ** proofgoal from satisfying added constraint **
  proofgoal #1: 1 ~_p3 1 ~_p4 1 ~_p5 1 x5 >= 2
  ** proofgoals from order **
  ** proofgoals from objective **
  proofgoal #2: >= 0
  ConstraintId 068: 1 _p3 1 _p4 1 _p5 1 ~x5 >= 3
line 105: 	proofgoal #1
  ConstraintId 069: 1 _p3 1 _p4 1 _p5 1 ~x5 >= 3
line 106: p 61 -1 + s
  ConstraintId 070: 1 x4 >= 1
line 107: p 67 -2 + s
  ConstraintId 071: 1 ~x4 >= 1
line 108: p -1 -2 + s
  ConstraintId 072: >= 1
line 109: 	end -1
  ConstraintId  - : deleting 69, 70, 71, 72
line 110: end
    automatically proved #2, constraint is trivial.
  ConstraintId 073: 1 ~_p3 1 ~_p4 1 ~_p5 1 x5 >= 2
  ConstraintId  - : deleting 68
line 111: p -1 x5 +
  ConstraintId 074: 1 ~_p3 1 ~_p4 1 ~_p5 2 x5 >= 2
line 112: * Proof by contradiction0
line 113: *
line 114: red 1 ~_p3 1 ~_p5 1 ~_p4 >= 2; ; begin
  ** proofgoals from formula **
  ** proofgoal from satisfying added constraint **
  proofgoal #1: 1 ~_p3 1 ~_p4 1 ~_p5 >= 2
  ** proofgoals from order **
  ** proofgoals from objective **
  proofgoal #2: >= 0
  ConstraintId 075: 1 _p3 1 _p4 1 _p5 >= 2
line 115: 	proofgoal #1
  ConstraintId 076: 1 _p3 1 _p4 1 _p5 >= 2
line 116: p 74 -1 + s
  ConstraintId 077: 1 x5 >= 1
line 117: p 64 -2 + s
  ConstraintId 078: 1 ~x5 >= 1
line 118: p -1 -2 + s
  ConstraintId 079: >= 1
line 119: 	end -1
  ConstraintId  - : deleting 76, 77, 78, 79
line 120: end
    automatically proved #2, constraint is trivial.
  ConstraintId 080: 1 ~_p3 1 ~_p4 1 ~_p5 >= 2
  ConstraintId  - : deleting 75
line 121: p 1 -1 +
  ConstraintId 081: 1 ~_b1 1 ~_p3 1 ~_p4 1 ~_p5 1 x1 1 x2 1 x3 >= 3
line 122: p 6 x2 w x5 w x4 w s
  ConstraintId 082: 1 ~_p3 1 ~x3 >= 1
line 123: p 8 x1 w x5 w x2 w s
  ConstraintId 083: 1 ~_p4 1 ~x3 >= 1
line 124: p 10 x1 w x5 w x4 w x2 w s
  ConstraintId 084: 1 ~_p5 1 ~x3 >= 1
line 125: p -3 -2 + -1 +
  ConstraintId 085: 1 ~_p3 1 ~_p4 1 ~_p5 3 ~x3 >= 3
line 126: p -1 ~_b1 + x1 +
  ConstraintId 086: 1 ~_b1 1 ~_p3 1 ~_p4 1 ~_p5 1 x1 3 ~x3 >= 3
line 127: p 6 x3 w x5 w x4 w s
  ConstraintId 087: 1 ~_p3 1 ~x2 >= 1
line 128: p 8 x1 w x5 w x3 w s
  ConstraintId 088: 1 ~_p4 1 ~x2 >= 1
line 129: p 10 x1 w x5 w x4 w x3 w s
  ConstraintId 089: 1 ~_p5 1 ~x2 >= 1
line 130: p -3 -2 + -1 +
  ConstraintId 090: 1 ~_p3 1 ~_p4 1 ~_p5 3 ~x2 >= 3
line 131: p -1 ~_b1 + x1 +
  ConstraintId 091: 1 ~_b1 1 ~_p3 1 ~_p4 1 ~_p5 1 x1 3 ~x2 >= 3
line 132: red 1 x1 1 ~_b1 1 ~_p3 1 ~_p4 1 ~_p5 >= 3; ; begin
  ** proofgoals from formula **
  ** proofgoal from satisfying added constraint **
  proofgoal #1: 1 ~_b1 1 ~_p3 1 ~_p4 1 ~_p5 1 x1 >= 3
  ** proofgoals from order **
  ** proofgoals from objective **
  proofgoal #2: >= 0
  ConstraintId 092: 1 _b1 1 _p3 1 _p4 1 _p5 1 ~x1 >= 3
line 133: 	proofgoal #1
  ConstraintId 093: 1 _b1 1 _p3 1 _p4 1 _p5 1 ~x1 >= 3
line 134: p 93 81 + s
  ConstraintId 094: 1 x2 1 x3 >= 1
line 135: p 93 86 + s
  ConstraintId 095: 1 ~x3 >= 1
line 136: p 93 91 + s
  ConstraintId 096: 1 ~x2 >= 1
line 137: p -3 -2 + -1 + s
  ConstraintId 097: >= 1
line 138: 	end -1
  ConstraintId  - : deleting 93, 94, 95, 96, 97
line 139: end
    automatically proved #2, constraint is trivial.
  ConstraintId 098: 1 ~_b1 1 ~_p3 1 ~_p4 1 ~_p5 1 x1 >= 3
  ConstraintId  - : deleting 92
line 140: p x1 2 * -1 +
  ConstraintId 099: 1 ~_b1 1 ~_p3 1 ~_p4 1 ~_p5 3 x1 >= 3
line 141: p 14 x5 w x4 w x3 w x2 w s
  ConstraintId 100: 1 ~_p7 1 x1 >= 1
line 142: p 12 x5 w x4 w x3 w s
  ConstraintId 101: 1 ~_p6 1 x1 >= 1
line 143: p -2 -1 + 99 + ~_b2 +
  ConstraintId 102: 1 ~_b1 1 ~_b2 1 ~_p3 1 ~_p4 1 ~_p5 1 ~_p6 1 ~_p7 5 x1 >= 5
line 144: * Claim 2
line 145: *
line 146: * __Claim 2__
line 147: p 5 13 + s 11 + s
  ConstraintId 103: 1 _p3 1 _p6 1 _p7 1 ~x1 1 x4 1 x5 >= 1
line 148: p 4 x1 w s
  ConstraintId 104: 2 _b2 1 ~x4 1 ~x5 >= 2
line 149: p ~x1 _p3 + _p7 + _p6 + 2 * -1 +
  ConstraintId 105: 2 _b2 2 _p3 2 _p6 2 _p7 2 ~x1 1 ~x4 1 ~x5 >= 2
line 150: * Step 2
line 151: *
line 152: red 1 ~x1 1 _b2 1 _p3 1 _p7 1 _p6 >= 1; ; begin
  ** proofgoals from formula **
  ** proofgoal from satisfying added constraint **
  proofgoal #1: 1 _b2 1 _p3 1 _p6 1 _p7 1 ~x1 >= 1
  ** proofgoals from order **
  ** proofgoals from objective **
  proofgoal #2: >= 0
  ConstraintId 106: 1 ~_b2 1 ~_p3 1 ~_p6 1 ~_p7 1 x1 >= 5
line 153: 	proofgoal #1
  ConstraintId 107: 1 ~_b2 1 ~_p3 1 ~_p6 1 ~_p7 1 x1 >= 5
line 154: p -1 2 * 105 + s
  ConstraintId 108: 1 ~x4 1 ~x5 >= 2
line 155: p -2 103 + s
  ConstraintId 109: 1 ~_b2 1 x4 1 x5 >= 2
line 156: p -2 -1 +
  ConstraintId 110: 1 ~_b2 >= 2
line 157: 	end -1
  ConstraintId  - : deleting 107, 108, 109, 110
line 158: end
  ConstraintId 111: 1 _b2 1 _p3 1 _p6 1 _p7 1 ~x1 >= 1
  ConstraintId  - : deleting 106
line 159: p 3 x3 w x2 w s
  ConstraintId 112: 1 _b1 1 ~x1 >= 1
line 160: * Step 3
line 161: *
line 162: p -2 -1 + _p5 + _p4 +
  ConstraintId 113: 1 _b1 1 _b2 1 _p3 1 _p4 1 _p5 1 _p6 1 _p7 2 ~x1 >= 2
line 163: * __Claim 3__
line 164: p 5 9 + s 7 + s
  ConstraintId 114: 1 _p3 1 _p4 1 _p5 1 x1 1 x2 1 x3 >= 1
line 165: p 3 x1 w s
  ConstraintId 115: 2 _b1 1 ~x2 1 ~x3 >= 2
line 166: p x1 _p3 + _p5 + _p4 + 2 * -1 +
  ConstraintId 116: 2 _b1 2 _p3 2 _p4 2 _p5 2 x1 1 ~x2 1 ~x3 >= 2
line 167: red 1 x1 1 _b1 1 _p3 1 _p5 1 _p4 >= 1; ; begin
  ** proofgoals from formula **
  ** proofgoal from satisfying added constraint **
  proofgoal #1: 1 _b1 1 _p3 1 _p4 1 _p5 1 x1 >= 1
  ** proofgoals from order **
  ** proofgoals from objective **
  proofgoal #2: >= 0
  ConstraintId 117: 1 ~_b1 1 ~_p3 1 ~_p4 1 ~_p5 1 ~x1 >= 5
line 168: 	proofgoal #1
  ConstraintId 118: 1 ~_b1 1 ~_p3 1 ~_p4 1 ~_p5 1 ~x1 >= 5
line 169: p -1 2 * 116 + s
  ConstraintId 119: 1 ~x2 1 ~x3 >= 2
line 170: p -2 114 + s
  ConstraintId 120: 1 ~_b1 1 x2 1 x3 >= 2
line 171: p -2 -1 +
  ConstraintId 121: 1 ~_b1 >= 2
line 172: 	end -1
  ConstraintId  - : deleting 118, 119, 120, 121
line 173: end
  ConstraintId 122: 1 _b1 1 _p3 1 _p4 1 _p5 1 x1 >= 1
  ConstraintId  - : deleting 117
line 174: p 4 x5 w x4 w s
  ConstraintId 123: 1 _b2 1 x1 >= 1
line 175: p -2 -1 + _p7 + _p6 +
  ConstraintId 124: 1 _b1 1 _b2 1 _p3 1 _p4 1 _p5 1 _p6 1 _p7 2 x1 >= 2
line 176: * __Claim 4__
line 177: * __Proof by contradiction__
line 178: red 1 ~_b1 1 ~_b2 1 ~_p7 1 ~_p6 1 ~_p5 1 ~_p4 1 ~_p3 >= 5; ; begin
  ** proofgoals from formula **
  ** proofgoal from satisfying added constraint **
  proofgoal #1: 1 ~_b1 1 ~_b2 1 ~_p3 1 ~_p4 1 ~_p5 1 ~_p6 1 ~_p7 >= 5
  ** proofgoals from order **
  ** proofgoals from objective **
  proofgoal #2: >= 0
  ConstraintId 125: 1 _b1 1 _b2 1 _p3 1 _p4 1 _p5 1 _p6 1 _p7 >= 3
line 179: 	proofgoal #1
  ConstraintId 126: 1 _b1 1 _b2 1 _p3 1 _p4 1 _p5 1 _p6 1 _p7 >= 3
line 180: p -1 58 + s
  ConstraintId 127: 1 ~x1 >= 1
line 181: p -2 102 + s
  ConstraintId 128: 1 x1 >= 1
line 182: p -2 -1 +
  ConstraintId 129: >= 1
line 183: 	end -1
  ConstraintId  - : deleting 126, 127, 128, 129
line 184: end
    automatically proved #2, constraint is trivial.
  ConstraintId 130: 1 ~_b1 1 ~_b2 1 ~_p3 1 ~_p4 1 ~_p5 1 ~_p6 1 ~_p7 >= 5
  ConstraintId  - : deleting 125
line 185: core id  -1
line 186: * __Proof by contradiction__
line 187: red 1 _b1 1 _b2 1 _p7 1 _p6 1 _p5 1 _p4 1 _p3 >= 2; ; begin
  ** proofgoals from formula **
  ** proofgoal from satisfying added constraint **
  proofgoal #1: 1 _b1 1 _b2 1 _p3 1 _p4 1 _p5 1 _p6 1 _p7 >= 2
  ** proofgoals from order **
  ** proofgoals from objective **
  proofgoal #2: >= 0
  ConstraintId 131: 1 ~_b1 1 ~_b2 1 ~_p3 1 ~_p4 1 ~_p5 1 ~_p6 1 ~_p7 >= 6
line 188: 	proofgoal #1
  ConstraintId 132: 1 ~_b1 1 ~_b2 1 ~_p3 1 ~_p4 1 ~_p5 1 ~_p6 1 ~_p7 >= 6
line 189: p -1 113 + s
  ConstraintId 133: 1 ~x1 >= 1
line 190: p -2 124 + s
  ConstraintId 134: 1 x1 >= 1
line 191: p -2 -1 +
  ConstraintId 135: >= 1
line 192: 	end -1
  ConstraintId  - : deleting 132, 133, 134, 135
line 193: end
    automatically proved #2, constraint is trivial.
  ConstraintId 136: 1 _b1 1 _b2 1 _p3 1 _p4 1 _p5 1 _p6 1 _p7 >= 2
  ConstraintId  - : deleting 131
line 194: core id  -1
line 195: obju diff -1 ~_b1 -1 ~_b2 1 _p7 1 _p6 1 _p5 1 _p4 1 _p3;
  ** proofgoal from new objective >= old objective **
  proofgoal #1: 1 _b1 1 _b2 1 _p3 1 _p4 1 _p5 1 _p6 1 _p7 >= 2
  ** proofgoal from old objective >= new objective **
  proofgoal #2: 1 ~_b1 1 ~_b2 1 ~_p3 1 ~_p4 1 ~_p5 1 ~_p6 1 ~_p7 >= 5
    automatically proved #1 by finding constraint in database
    automatically proved #2 by finding constraint in database
  Objective update to: min 1 _p3 1 _p4 1 _p5 1 _p6 1 _p7 0 
line 196: output NONE
line 197: conclusion NONE
s VERIFIED NO CONCLUSION
line 198: end pseudo-Boolean proof
=== end trace ===

Verification succeeded.
